branch-and-cut/resultados/B/b11.sol
88.0
26
12 42
17 22
17 71
20 30
22 24
22 48
22 34
24 59
27 75
28 54
28 56
30 31
30 65
31 71
35 73
42 73
44 65
49 65
51 53
51 56
51 64
59 68
64 75
64 65
65 74
65 73
