branch-and-cut/resultados/B/b11.log
Set parameter Username
Academic license - for non-commercial use only - expires 2024-12-10
Set parameter LazyConstraints to value 1
Set parameter TimeLimit to value 600
Gurobi Optimizer version 10.0.0 build v10.0.0rc2 (linux64)

CPU model: Intel(R) Core(TM) i5-4590 CPU @ 3.30GHz, instruction set [SSE2|AVX|AVX2]
Thread count: 4 physical cores, 4 logical processors, using up to 4 threads

Optimize a model with 619 rows, 150 columns and 675 nonzeros
Model fingerprint: 0x1d11bb92
Variable types: 0 continuous, 150 integer (150 binary)
Coefficient statistics:
  Matrix range     [1e+00, 1e+00]
  Objective range  [1e+00, 1e+01]
  Bounds range     [1e+00, 1e+00]
  RHS range        [1e+00, 1e+00]
Presolve removed 601 rows and 1 columns
Presolve time: 0.00s
Presolved: 18 rows, 149 columns, 74 nonzeros
Variable types: 0 continuous, 149 integer (149 binary)

Root relaxation: objective 5.100000e+01, 17 iterations, 0.00 seconds (0.00 work units)

    Nodes    |    Current Node    |     Objective Bounds      |     Work
 Expl Unexpl |  Obj  Depth IntInf | Incumbent    BestBd   Gap | It/Node Time

     0     0   51.00000    0    -          -   51.00000      -     -    0s
     0     0   52.00000    0    4          -   52.00000      -     -    0s
     0     0   62.00000    0    -          -   62.00000      -     -    0s
     0     0   63.00000    0    -          -   63.00000      -     -    0s
     0     0   63.00000    0    -          -   63.00000      -     -    0s
H    0     0                     152.0000000   63.50000  58.2%     -    0s
     0     0   63.50000    0    5  152.00000   63.50000  58.2%     -    0s
     0     0   67.00000    0    -  152.00000   67.00000  55.9%     -    0s
     0     0   67.00000    0    3  152.00000   67.00000  55.9%     -    0s
     0     0   71.00000    0    -  152.00000   71.00000  53.3%     -    0s
     0     0   71.00000    0    -  152.00000   71.00000  53.3%     -    0s
H    0     0                     147.0000000   71.00000  51.7%     -    0s
     0     0   71.00000    0    3  147.00000   71.00000  51.7%     -    0s
H    0     0                     122.0000000   71.50000  41.4%     -    0s
     0     0   71.50000    0    3  122.00000   71.50000  41.4%     -    0s
H    0     0                     109.0000000   73.41667  32.6%     -    0s
     0     0   73.41667    0   11  109.00000   73.41667  32.6%     -    0s
H    0     0                     107.0000000   73.41667  31.4%     -    0s
H    0     2                      98.0000000   73.41667  25.1%     -    0s
     0     2   75.05882    0   15   98.00000   75.05882  23.4%     -    0s
H    1     4                      97.0000000   75.20000  22.5%   0.0    0s
H    3     8                      95.0000000   76.90909  19.0%  13.7    0s
H   16    18                      92.0000000   79.00000  14.1%  14.2    1s
H   81    82                      90.0000000   79.25000  11.9%  16.1    1s
   587   490   87.08537   14   20   90.00000   82.50000  8.33%   7.9    5s
  1441  1022   87.00000   18    -   90.00000   83.43590  7.29%   7.2   11s
  1979  1303   88.40000   17    9   90.00000   83.75000  6.94%   7.1   15s
H 2308  1383                      88.0000000   85.94081  2.34%   8.6   19s

Cutting planes:
  User: 150
  Gomory: 21
  MIR: 4
  Flow cover: 23
  Zero half: 14
  Lazy constraints: 37

Explored 2366 nodes (20640 simplex iterations) in 19.86 seconds (1.62 work units)
Thread count was 4 (of 4 available processors)

Solution count 10: 88 90 92 ... 147

Optimal solution found (tolerance 1.00e-04)
Best objective 8.800000000000e+01, best bound 8.800000000000e+01, gap 0.0000%

User-callback calls 6197, time in user-callback 18.19 sec
